5	4
4	3	3	18	4	20	2	16	3	1	24	3	18	4	30	3	2	18	1	20	3	16	3	4	12	2	14	1	10
3	3	3	32	1	28	2	36	3	2	22	3	24	4	20	3	4	18	2	20	3	16
3	3	1	42	3	38	4	44	3	2	36	4	38	1	32	3	4	14	1	16	2	16
3	3	2	40	4	42	3	44	3	3	44	1	40	2	42	3	4	22	3	24	1	20
4	3	3	28	2	30	1	32	3	1	32	4	26	3	28	3	2	26	1	28	4	22	3	4	18	3	20	2	22
0	2	3	4	3
3	0	1	2	1
4	6	0	1	2
3	5	6	0	1
2	4	5	6	0
